25 25
3 4
6 7
1 10
5 5
9 8
10 10
8 3
8 4
4 10
10 2
3 7
7 3
4 10
10 10
6 9
7 5
6 8
6 5
3 5
7 9
7 7
4 9
5 7
1 1
8 7
20 11 72
11 18 88
19 20 72
11 18 79
19 18 82
11 12 79
16 20 88
12 11 58
17 11 77
19 12 63
18 11 76
16 17 79
19 14 60
16 18 50
11 20 97
12 19 53
18 17 61
15 11 100
17 13 78
17 15 54
16 16 74
16 10 52
16 14 80
17 11 99
19 20 95
